rust/resources/mps/milo1.mps
NAME        milo1
OBJSENSE
  MAX
ROWS
 N  obj
 L  c1
 G  c2
COLUMNS
    MARK0000  'MARKER'                 'INTORG'
    x1        obj       1
    x1        c1        50
    x1        c2        3
    x2        obj       0.64
    x2        c1        31
    x2        c2        -2
    MARK0001  'MARKER'                 'INTEND'
RHS
    RHS_V     c1        250
    RHS_V     c2        -4
BOUNDS
 LI BOUND     x1        0
 LI BOUND     x2        0
ENDATA
